(set-info :original "/tmp/sea-JvUVll/eureka_05_true-unreach-call_true-termination.pp.ms.o.bc")
(set-info :authors "SeaHorn v.0.1.0-rc3")
(declare-rel verifier.error (Bool Bool Bool ))
(declare-rel main@entry ((Array Int Int) ))
(declare-rel main@postcall (Bool Int Int (Array Int Int) ))
(declare-rel main@precall.split ())
(declare-var main@%_85_0 Bool )
(declare-var main@%_86_0 Int )
(declare-var main@%_87_0 Int )
(declare-var main@%_88_0 Bool )
(declare-var main@%_89_0 Bool )
(declare-var main@%.lcssa9_1 Bool )
(declare-var main@%_83_2 Bool )
(declare-var main@%i.1.i2_2 Int )
(declare-var @array_0 Int )
(declare-var main@%_0_0 (Array Int Int) )
(declare-var main@%_2_0 Int )
(declare-var main@%_3_0 (Array Int Int) )
(declare-var main@%_4_0 Int )
(declare-var main@%_5_0 (Array Int Int) )
(declare-var main@%_6_0 Int )
(declare-var main@%_7_0 (Array Int Int) )
(declare-var main@%_8_0 Int )
(declare-var main@%_9_0 (Array Int Int) )
(declare-var main@%_10_0 Int )
(declare-var main@%_12_0 Int )
(declare-var main@%_1_0 (Array Int Int) )
(declare-var main@%_13_0 Int )
(declare-var main@%_14_0 Int )
(declare-var main@%_15_0 Int )
(declare-var main@%_16_0 Bool )
(declare-var main@%i.0.rh.0.i_0 Int )
(declare-var main@%_17_0 Int )
(declare-var main@%_18_0 Int )
(declare-var main@%_19_0 Int )
(declare-var main@%_20_0 Int )
(declare-var main@%_21_0 Bool )
(declare-var main@%i.0.rh.0.i.1_0 Int )
(declare-var main@%_22_0 Int )
(declare-var main@%_23_0 Int )
(declare-var main@%_24_0 Int )
(declare-var main@%_25_0 Int )
(declare-var main@%_26_0 Bool )
(declare-var main@%i.0.rh.0.i.2_0 Int )
(declare-var main@%_27_0 Int )
(declare-var main@%_28_0 Int )
(declare-var main@%_29_0 Int )
(declare-var main@%_30_0 Int )
(declare-var main@%_31_0 Bool )
(declare-var main@%i.0.rh.0.i.3_0 Int )
(declare-var main@%_32_0 Int )
(declare-var main@%_33_0 Int )
(declare-var main@%_34_0 Int )
(declare-var main@%_35_0 (Array Int Int) )
(declare-var main@%_36_0 (Array Int Int) )
(declare-var main@%_37_0 Int )
(declare-var main@%_38_0 Int )
(declare-var main@%_39_0 Int )
(declare-var main@%_40_0 Int )
(declare-var main@%_41_0 Bool )
(declare-var main@%i.0.rh.0.1.i_0 Int )
(declare-var main@%_42_0 Int )
(declare-var main@%_43_0 Int )
(declare-var main@%_44_0 Int )
(declare-var main@%_45_0 Int )
(declare-var main@%_46_0 Bool )
(declare-var main@%i.0.rh.0.1.i.1_0 Int )
(declare-var main@%_47_0 Int )
(declare-var main@%_48_0 Int )
(declare-var main@%_49_0 Int )
(declare-var main@%_50_0 Int )
(declare-var main@%_51_0 Bool )
(declare-var main@%i.0.rh.0.1.i.2_0 Int )
(declare-var main@%_52_0 Int )
(declare-var main@%_53_0 Int )
(declare-var main@%_54_0 Int )
(declare-var main@%_55_0 (Array Int Int) )
(declare-var main@%_56_0 (Array Int Int) )
(declare-var main@%_57_0 Int )
(declare-var main@%_58_0 Int )
(declare-var main@%_59_0 Int )
(declare-var main@%_60_0 Int )
(declare-var main@%_61_0 Bool )
(declare-var main@%i.0.rh.0.2.i_0 Int )
(declare-var main@%_62_0 Int )
(declare-var main@%_63_0 Int )
(declare-var main@%_64_0 Int )
(declare-var main@%_65_0 Int )
(declare-var main@%_66_0 Bool )
(declare-var main@%i.0.rh.0.2.i.1_0 Int )
(declare-var main@%_67_0 Int )
(declare-var main@%_68_0 Int )
(declare-var main@%_69_0 Int )
(declare-var main@%_70_0 (Array Int Int) )
(declare-var main@%_71_0 (Array Int Int) )
(declare-var main@%_72_0 Int )
(declare-var main@%_73_0 Int )
(declare-var main@%_74_0 Int )
(declare-var main@%_75_0 Int )
(declare-var main@%_76_0 Bool )
(declare-var main@%i.0.rh.0.3.i_0 Int )
(declare-var main@%_77_0 Int )
(declare-var main@%_78_0 Int )
(declare-var main@%_79_0 Int )
(declare-var main@%_80_0 (Array Int Int) )
(declare-var main@%_81_0 (Array Int Int) )
(declare-var main@%_82_0 Bool )
(declare-var main@entry_0 Bool )
(declare-var main@%array.i_0 Int )
(declare-var main@%_11_0 (Array Int Int) )
(declare-var main@postcall.preheader_0 Bool )
(declare-var main@postcall_0 Bool )
(declare-var main@%_83_0 Bool )
(declare-var main@%i.1.i2_0 Int )
(declare-var main@%_83_1 Bool )
(declare-var main@%i.1.i2_1 Int )
(declare-var main@precall_0 Bool )
(declare-var main@%.lcssa_0 Bool )
(declare-var main@%.lcssa_1 Bool )
(declare-var main@precall.split_0 Bool )
(declare-var main@%_84_0 Int )
(declare-var main@%_90_0 Bool )
(declare-var main@postcall_1 Bool )
(declare-var main@precall.loopexit_0 Bool )
(declare-var main@%.lcssa9_0 Bool )
(rule (verifier.error false false false))
(rule (verifier.error false true true))
(rule (verifier.error true false true))
(rule (verifier.error true true true))
(rule (main@entry main@%_1_0))
(rule (let ((a!1 (= main@%_2_0 (+ (+ main@%array.i_0 (* 0 20)) (* 4 4))))
      (a!2 (= main@%_4_0 (+ (+ main@%array.i_0 (* 0 20)) (* 3 4))))
      (a!3 (= main@%_6_0 (+ (+ main@%array.i_0 (* 0 20)) (* 2 4))))
      (a!4 (= main@%_8_0 (+ (+ main@%array.i_0 (* 0 20)) (* 1 4))))
      (a!5 (= main@%_10_0 (+ (+ main@%array.i_0 (* 0 20)) (* 0 4))))
      (a!6 (= main@%_12_0 (+ (+ @array_0 (* 0 20)) (* 1 4))))
      (a!7 (= main@%_14_0 (+ (+ @array_0 (* 0 20)) (* 0 4))))
      (a!8 (= main@%_17_0 (+ (+ @array_0 (* 0 20)) (* 2 4))))
      (a!9 (= main@%_19_0 (+ (+ @array_0 (* 0 20)) (* main@%i.0.rh.0.i_0 4))))
      (a!10 (= main@%_22_0 (+ (+ @array_0 (* 0 20)) (* 3 4))))
      (a!11 (= main@%_24_0 (+ (+ @array_0 (* 0 20)) (* main@%i.0.rh.0.i.1_0 4))))
      (a!12 (= main@%_27_0 (+ (+ @array_0 (* 0 20)) (* 4 4))))
      (a!13 (= main@%_29_0 (+ (+ @array_0 (* 0 20)) (* main@%i.0.rh.0.i.2_0 4))))
      (a!14 (= main@%_32_0 (+ (+ @array_0 (* 0 20)) (* main@%i.0.rh.0.i.3_0 4))))
      (a!15 (= main@%_34_0 (+ (+ @array_0 (* 0 20)) (* 0 4))))
      (a!16 (= main@%_37_0 (+ (+ @array_0 (* 0 20)) (* 2 4))))
      (a!17 (= main@%_39_0 (+ (+ @array_0 (* 0 20)) (* 1 4))))
      (a!18 (= main@%_42_0 (+ (+ @array_0 (* 0 20)) (* 3 4))))
      (a!19 (= main@%_44_0 (+ (+ @array_0 (* 0 20)) (* main@%i.0.rh.0.1.i_0 4))))
      (a!20 (= main@%_47_0 (+ (+ @array_0 (* 0 20)) (* 4 4))))
      (a!21 (= main@%_49_0
               (+ (+ @array_0 (* 0 20)) (* main@%i.0.rh.0.1.i.1_0 4))))
      (a!22 (= main@%_52_0
               (+ (+ @array_0 (* 0 20)) (* main@%i.0.rh.0.1.i.2_0 4))))
      (a!23 (= main@%_54_0 (+ (+ @array_0 (* 0 20)) (* 1 4))))
      (a!24 (= main@%_57_0 (+ (+ @array_0 (* 0 20)) (* 3 4))))
      (a!25 (= main@%_59_0 (+ (+ @array_0 (* 0 20)) (* 2 4))))
      (a!26 (= main@%_62_0 (+ (+ @array_0 (* 0 20)) (* 4 4))))
      (a!27 (= main@%_64_0 (+ (+ @array_0 (* 0 20)) (* main@%i.0.rh.0.2.i_0 4))))
      (a!28 (= main@%_67_0
               (+ (+ @array_0 (* 0 20)) (* main@%i.0.rh.0.2.i.1_0 4))))
      (a!29 (= main@%_69_0 (+ (+ @array_0 (* 0 20)) (* 2 4))))
      (a!30 (= main@%_72_0 (+ (+ @array_0 (* 0 20)) (* 4 4))))
      (a!31 (= main@%_74_0 (+ (+ @array_0 (* 0 20)) (* 3 4))))
      (a!32 (= main@%_77_0 (+ (+ @array_0 (* 0 20)) (* main@%i.0.rh.0.3.i_0 4))))
      (a!33 (= main@%_79_0 (+ (+ @array_0 (* 0 20)) (* 3 4)))))
  (=> (and (main@entry main@%_1_0)
           true
           (> main@%array.i_0 0)
           a!1
           (or (<= main@%array.i_0 0) (> main@%_2_0 0))
           (> main@%array.i_0 0)
           (= main@%_3_0 (store main@%_0_0 main@%_2_0 4))
           a!2
           (or (<= main@%array.i_0 0) (> main@%_4_0 0))
           (> main@%array.i_0 0)
           (= main@%_5_0 (store main@%_3_0 main@%_4_0 3))
           a!3
           (or (<= main@%array.i_0 0) (> main@%_6_0 0))
           (> main@%array.i_0 0)
           (= main@%_7_0 (store main@%_5_0 main@%_6_0 2))
           a!4
           (or (<= main@%array.i_0 0) (> main@%_8_0 0))
           (> main@%array.i_0 0)
           (= main@%_9_0 (store main@%_7_0 main@%_8_0 1))
           a!5
           (or (<= main@%array.i_0 0) (> main@%_10_0 0))
           (= main@%_11_0 (store main@%_9_0 main@%_10_0 0))
           a!6
           (or (<= @array_0 0) (> main@%_12_0 0))
           (> @array_0 0)
           (= main@%_13_0 (select main@%_1_0 main@%_12_0))
           a!7
           (or (<= @array_0 0) (> main@%_14_0 0))
           (= main@%_15_0 (select main@%_1_0 main@%_14_0))
           (= main@%_16_0 (< main@%_13_0 main@%_15_0))
           (= main@%i.0.rh.0.i_0 (ite main@%_16_0 1 0))
           a!8
           (or (<= @array_0 0) (> main@%_17_0 0))
           (> @array_0 0)
           (= main@%_18_0 (select main@%_1_0 main@%_17_0))
           a!9
           (or (<= @array_0 0) (> main@%_19_0 0))
           (> @array_0 0)
           (= main@%_20_0 (select main@%_1_0 main@%_19_0))
           (= main@%_21_0 (< main@%_18_0 main@%_20_0))
           (= main@%i.0.rh.0.i.1_0 (ite main@%_21_0 2 main@%i.0.rh.0.i_0))
           a!10
           (or (<= @array_0 0) (> main@%_22_0 0))
           (> @array_0 0)
           (= main@%_23_0 (select main@%_1_0 main@%_22_0))
           a!11
           (or (<= @array_0 0) (> main@%_24_0 0))
           (> @array_0 0)
           (= main@%_25_0 (select main@%_1_0 main@%_24_0))
           (= main@%_26_0 (< main@%_23_0 main@%_25_0))
           (= main@%i.0.rh.0.i.2_0 (ite main@%_26_0 3 main@%i.0.rh.0.i.1_0))
           a!12
           (or (<= @array_0 0) (> main@%_27_0 0))
           (> @array_0 0)
           (= main@%_28_0 (select main@%_1_0 main@%_27_0))
           a!13
           (or (<= @array_0 0) (> main@%_29_0 0))
           (> @array_0 0)
           (= main@%_30_0 (select main@%_1_0 main@%_29_0))
           (= main@%_31_0 (< main@%_28_0 main@%_30_0))
           (= main@%i.0.rh.0.i.3_0 (ite main@%_31_0 4 main@%i.0.rh.0.i.2_0))
           a!14
           (or (<= @array_0 0) (> main@%_32_0 0))
           (> @array_0 0)
           (= main@%_33_0 (select main@%_1_0 main@%_32_0))
           a!15
           (or (<= @array_0 0) (> main@%_34_0 0))
           (= main@%_35_0 (store main@%_1_0 main@%_34_0 main@%_33_0))
           (> @array_0 0)
           (= main@%_36_0 (store main@%_35_0 main@%_32_0 main@%_15_0))
           a!16
           (or (<= @array_0 0) (> main@%_37_0 0))
           (> @array_0 0)
           (= main@%_38_0 (select main@%_36_0 main@%_37_0))
           a!17
           (or (<= @array_0 0) (> main@%_39_0 0))
           (> @array_0 0)
           (= main@%_40_0 (select main@%_36_0 main@%_39_0))
           (= main@%_41_0 (< main@%_38_0 main@%_40_0))
           (= main@%i.0.rh.0.1.i_0 (ite main@%_41_0 2 1))
           a!18
           (or (<= @array_0 0) (> main@%_42_0 0))
           (> @array_0 0)
           (= main@%_43_0 (select main@%_36_0 main@%_42_0))
           a!19
           (or (<= @array_0 0) (> main@%_44_0 0))
           (> @array_0 0)
           (= main@%_45_0 (select main@%_36_0 main@%_44_0))
           (= main@%_46_0 (< main@%_43_0 main@%_45_0))
           (= main@%i.0.rh.0.1.i.1_0 (ite main@%_46_0 3 main@%i.0.rh.0.1.i_0))
           a!20
           (or (<= @array_0 0) (> main@%_47_0 0))
           (> @array_0 0)
           (= main@%_48_0 (select main@%_36_0 main@%_47_0))
           a!21
           (or (<= @array_0 0) (> main@%_49_0 0))
           (> @array_0 0)
           (= main@%_50_0 (select main@%_36_0 main@%_49_0))
           (= main@%_51_0 (< main@%_48_0 main@%_50_0))
           (= main@%i.0.rh.0.1.i.2_0 (ite main@%_51_0 4 main@%i.0.rh.0.1.i.1_0))
           a!22
           (or (<= @array_0 0) (> main@%_52_0 0))
           (> @array_0 0)
           (= main@%_53_0 (select main@%_36_0 main@%_52_0))
           a!23
           (or (<= @array_0 0) (> main@%_54_0 0))
           (> @array_0 0)
           (= main@%_55_0 (store main@%_36_0 main@%_54_0 main@%_53_0))
           (> @array_0 0)
           (= main@%_56_0 (store main@%_55_0 main@%_52_0 main@%_40_0))
           a!24
           (or (<= @array_0 0) (> main@%_57_0 0))
           (> @array_0 0)
           (= main@%_58_0 (select main@%_56_0 main@%_57_0))
           a!25
           (or (<= @array_0 0) (> main@%_59_0 0))
           (> @array_0 0)
           (= main@%_60_0 (select main@%_56_0 main@%_59_0))
           (= main@%_61_0 (< main@%_58_0 main@%_60_0))
           (= main@%i.0.rh.0.2.i_0 (ite main@%_61_0 3 2))
           a!26
           (or (<= @array_0 0) (> main@%_62_0 0))
           (> @array_0 0)
           (= main@%_63_0 (select main@%_56_0 main@%_62_0))
           a!27
           (or (<= @array_0 0) (> main@%_64_0 0))
           (> @array_0 0)
           (= main@%_65_0 (select main@%_56_0 main@%_64_0))
           (= main@%_66_0 (< main@%_63_0 main@%_65_0))
           (= main@%i.0.rh.0.2.i.1_0 (ite main@%_66_0 4 main@%i.0.rh.0.2.i_0))
           a!28
           (or (<= @array_0 0) (> main@%_67_0 0))
           (> @array_0 0)
           (= main@%_68_0 (select main@%_56_0 main@%_67_0))
           a!29
           (or (<= @array_0 0) (> main@%_69_0 0))
           (> @array_0 0)
           (= main@%_70_0 (store main@%_56_0 main@%_69_0 main@%_68_0))
           (> @array_0 0)
           (= main@%_71_0 (store main@%_70_0 main@%_67_0 main@%_60_0))
           a!30
           (or (<= @array_0 0) (> main@%_72_0 0))
           (> @array_0 0)
           (= main@%_73_0 (select main@%_71_0 main@%_72_0))
           a!31
           (or (<= @array_0 0) (> main@%_74_0 0))
           (> @array_0 0)
           (= main@%_75_0 (select main@%_71_0 main@%_74_0))
           (= main@%_76_0 (< main@%_73_0 main@%_75_0))
           (= main@%i.0.rh.0.3.i_0 (ite main@%_76_0 4 3))
           a!32
           (or (<= @array_0 0) (> main@%_77_0 0))
           (> @array_0 0)
           (= main@%_78_0 (select main@%_71_0 main@%_77_0))
           a!33
           (or (<= @array_0 0) (> main@%_79_0 0))
           (> @array_0 0)
           (= main@%_80_0 (store main@%_71_0 main@%_79_0 main@%_78_0))
           (> @array_0 0)
           (= main@%_81_0 (store main@%_80_0 main@%_77_0 main@%_75_0))
           true
           (=> main@postcall.preheader_0
               (and main@postcall.preheader_0 main@entry_0))
           (=> (and main@postcall.preheader_0 main@entry_0) main@%_82_0)
           (=> main@postcall_0 (and main@postcall_0 main@postcall.preheader_0))
           main@postcall_0
           (=> (and main@postcall_0 main@postcall.preheader_0)
               (= main@%_83_0 false))
           (=> (and main@postcall_0 main@postcall.preheader_0)
               (= main@%i.1.i2_0 0))
           (=> (and main@postcall_0 main@postcall.preheader_0)
               (= main@%_83_1 main@%_83_0))
           (=> (and main@postcall_0 main@postcall.preheader_0)
               (= main@%i.1.i2_1 main@%i.1.i2_0)))
      (main@postcall main@%_83_1 main@%i.1.i2_1 main@%array.i_0 main@%_11_0))))
(rule (let ((a!1 (= main@%_2_0 (+ (+ main@%array.i_0 (* 0 20)) (* 4 4))))
      (a!2 (= main@%_4_0 (+ (+ main@%array.i_0 (* 0 20)) (* 3 4))))
      (a!3 (= main@%_6_0 (+ (+ main@%array.i_0 (* 0 20)) (* 2 4))))
      (a!4 (= main@%_8_0 (+ (+ main@%array.i_0 (* 0 20)) (* 1 4))))
      (a!5 (= main@%_10_0 (+ (+ main@%array.i_0 (* 0 20)) (* 0 4))))
      (a!6 (= main@%_12_0 (+ (+ @array_0 (* 0 20)) (* 1 4))))
      (a!7 (= main@%_14_0 (+ (+ @array_0 (* 0 20)) (* 0 4))))
      (a!8 (= main@%_17_0 (+ (+ @array_0 (* 0 20)) (* 2 4))))
      (a!9 (= main@%_19_0 (+ (+ @array_0 (* 0 20)) (* main@%i.0.rh.0.i_0 4))))
      (a!10 (= main@%_22_0 (+ (+ @array_0 (* 0 20)) (* 3 4))))
      (a!11 (= main@%_24_0 (+ (+ @array_0 (* 0 20)) (* main@%i.0.rh.0.i.1_0 4))))
      (a!12 (= main@%_27_0 (+ (+ @array_0 (* 0 20)) (* 4 4))))
      (a!13 (= main@%_29_0 (+ (+ @array_0 (* 0 20)) (* main@%i.0.rh.0.i.2_0 4))))
      (a!14 (= main@%_32_0 (+ (+ @array_0 (* 0 20)) (* main@%i.0.rh.0.i.3_0 4))))
      (a!15 (= main@%_34_0 (+ (+ @array_0 (* 0 20)) (* 0 4))))
      (a!16 (= main@%_37_0 (+ (+ @array_0 (* 0 20)) (* 2 4))))
      (a!17 (= main@%_39_0 (+ (+ @array_0 (* 0 20)) (* 1 4))))
      (a!18 (= main@%_42_0 (+ (+ @array_0 (* 0 20)) (* 3 4))))
      (a!19 (= main@%_44_0 (+ (+ @array_0 (* 0 20)) (* main@%i.0.rh.0.1.i_0 4))))
      (a!20 (= main@%_47_0 (+ (+ @array_0 (* 0 20)) (* 4 4))))
      (a!21 (= main@%_49_0
               (+ (+ @array_0 (* 0 20)) (* main@%i.0.rh.0.1.i.1_0 4))))
      (a!22 (= main@%_52_0
               (+ (+ @array_0 (* 0 20)) (* main@%i.0.rh.0.1.i.2_0 4))))
      (a!23 (= main@%_54_0 (+ (+ @array_0 (* 0 20)) (* 1 4))))
      (a!24 (= main@%_57_0 (+ (+ @array_0 (* 0 20)) (* 3 4))))
      (a!25 (= main@%_59_0 (+ (+ @array_0 (* 0 20)) (* 2 4))))
      (a!26 (= main@%_62_0 (+ (+ @array_0 (* 0 20)) (* 4 4))))
      (a!27 (= main@%_64_0 (+ (+ @array_0 (* 0 20)) (* main@%i.0.rh.0.2.i_0 4))))
      (a!28 (= main@%_67_0
               (+ (+ @array_0 (* 0 20)) (* main@%i.0.rh.0.2.i.1_0 4))))
      (a!29 (= main@%_69_0 (+ (+ @array_0 (* 0 20)) (* 2 4))))
      (a!30 (= main@%_72_0 (+ (+ @array_0 (* 0 20)) (* 4 4))))
      (a!31 (= main@%_74_0 (+ (+ @array_0 (* 0 20)) (* 3 4))))
      (a!32 (= main@%_77_0 (+ (+ @array_0 (* 0 20)) (* main@%i.0.rh.0.3.i_0 4))))
      (a!33 (= main@%_79_0 (+ (+ @array_0 (* 0 20)) (* 3 4)))))
  (=> (and (main@entry main@%_1_0)
           true
           (> main@%array.i_0 0)
           a!1
           (or (<= main@%array.i_0 0) (> main@%_2_0 0))
           (> main@%array.i_0 0)
           (= main@%_3_0 (store main@%_0_0 main@%_2_0 4))
           a!2
           (or (<= main@%array.i_0 0) (> main@%_4_0 0))
           (> main@%array.i_0 0)
           (= main@%_5_0 (store main@%_3_0 main@%_4_0 3))
           a!3
           (or (<= main@%array.i_0 0) (> main@%_6_0 0))
           (> main@%array.i_0 0)
           (= main@%_7_0 (store main@%_5_0 main@%_6_0 2))
           a!4
           (or (<= main@%array.i_0 0) (> main@%_8_0 0))
           (> main@%array.i_0 0)
           (= main@%_9_0 (store main@%_7_0 main@%_8_0 1))
           a!5
           (or (<= main@%array.i_0 0) (> main@%_10_0 0))
           (= main@%_11_0 (store main@%_9_0 main@%_10_0 0))
           a!6
           (or (<= @array_0 0) (> main@%_12_0 0))
           (> @array_0 0)
           (= main@%_13_0 (select main@%_1_0 main@%_12_0))
           a!7
           (or (<= @array_0 0) (> main@%_14_0 0))
           (= main@%_15_0 (select main@%_1_0 main@%_14_0))
           (= main@%_16_0 (< main@%_13_0 main@%_15_0))
           (= main@%i.0.rh.0.i_0 (ite main@%_16_0 1 0))
           a!8
           (or (<= @array_0 0) (> main@%_17_0 0))
           (> @array_0 0)
           (= main@%_18_0 (select main@%_1_0 main@%_17_0))
           a!9
           (or (<= @array_0 0) (> main@%_19_0 0))
           (> @array_0 0)
           (= main@%_20_0 (select main@%_1_0 main@%_19_0))
           (= main@%_21_0 (< main@%_18_0 main@%_20_0))
           (= main@%i.0.rh.0.i.1_0 (ite main@%_21_0 2 main@%i.0.rh.0.i_0))
           a!10
           (or (<= @array_0 0) (> main@%_22_0 0))
           (> @array_0 0)
           (= main@%_23_0 (select main@%_1_0 main@%_22_0))
           a!11
           (or (<= @array_0 0) (> main@%_24_0 0))
           (> @array_0 0)
           (= main@%_25_0 (select main@%_1_0 main@%_24_0))
           (= main@%_26_0 (< main@%_23_0 main@%_25_0))
           (= main@%i.0.rh.0.i.2_0 (ite main@%_26_0 3 main@%i.0.rh.0.i.1_0))
           a!12
           (or (<= @array_0 0) (> main@%_27_0 0))
           (> @array_0 0)
           (= main@%_28_0 (select main@%_1_0 main@%_27_0))
           a!13
           (or (<= @array_0 0) (> main@%_29_0 0))
           (> @array_0 0)
           (= main@%_30_0 (select main@%_1_0 main@%_29_0))
           (= main@%_31_0 (< main@%_28_0 main@%_30_0))
           (= main@%i.0.rh.0.i.3_0 (ite main@%_31_0 4 main@%i.0.rh.0.i.2_0))
           a!14
           (or (<= @array_0 0) (> main@%_32_0 0))
           (> @array_0 0)
           (= main@%_33_0 (select main@%_1_0 main@%_32_0))
           a!15
           (or (<= @array_0 0) (> main@%_34_0 0))
           (= main@%_35_0 (store main@%_1_0 main@%_34_0 main@%_33_0))
           (> @array_0 0)
           (= main@%_36_0 (store main@%_35_0 main@%_32_0 main@%_15_0))
           a!16
           (or (<= @array_0 0) (> main@%_37_0 0))
           (> @array_0 0)
           (= main@%_38_0 (select main@%_36_0 main@%_37_0))
           a!17
           (or (<= @array_0 0) (> main@%_39_0 0))
           (> @array_0 0)
           (= main@%_40_0 (select main@%_36_0 main@%_39_0))
           (= main@%_41_0 (< main@%_38_0 main@%_40_0))
           (= main@%i.0.rh.0.1.i_0 (ite main@%_41_0 2 1))
           a!18
           (or (<= @array_0 0) (> main@%_42_0 0))
           (> @array_0 0)
           (= main@%_43_0 (select main@%_36_0 main@%_42_0))
           a!19
           (or (<= @array_0 0) (> main@%_44_0 0))
           (> @array_0 0)
           (= main@%_45_0 (select main@%_36_0 main@%_44_0))
           (= main@%_46_0 (< main@%_43_0 main@%_45_0))
           (= main@%i.0.rh.0.1.i.1_0 (ite main@%_46_0 3 main@%i.0.rh.0.1.i_0))
           a!20
           (or (<= @array_0 0) (> main@%_47_0 0))
           (> @array_0 0)
           (= main@%_48_0 (select main@%_36_0 main@%_47_0))
           a!21
           (or (<= @array_0 0) (> main@%_49_0 0))
           (> @array_0 0)
           (= main@%_50_0 (select main@%_36_0 main@%_49_0))
           (= main@%_51_0 (< main@%_48_0 main@%_50_0))
           (= main@%i.0.rh.0.1.i.2_0 (ite main@%_51_0 4 main@%i.0.rh.0.1.i.1_0))
           a!22
           (or (<= @array_0 0) (> main@%_52_0 0))
           (> @array_0 0)
           (= main@%_53_0 (select main@%_36_0 main@%_52_0))
           a!23
           (or (<= @array_0 0) (> main@%_54_0 0))
           (> @array_0 0)
           (= main@%_55_0 (store main@%_36_0 main@%_54_0 main@%_53_0))
           (> @array_0 0)
           (= main@%_56_0 (store main@%_55_0 main@%_52_0 main@%_40_0))
           a!24
           (or (<= @array_0 0) (> main@%_57_0 0))
           (> @array_0 0)
           (= main@%_58_0 (select main@%_56_0 main@%_57_0))
           a!25
           (or (<= @array_0 0) (> main@%_59_0 0))
           (> @array_0 0)
           (= main@%_60_0 (select main@%_56_0 main@%_59_0))
           (= main@%_61_0 (< main@%_58_0 main@%_60_0))
           (= main@%i.0.rh.0.2.i_0 (ite main@%_61_0 3 2))
           a!26
           (or (<= @array_0 0) (> main@%_62_0 0))
           (> @array_0 0)
           (= main@%_63_0 (select main@%_56_0 main@%_62_0))
           a!27
           (or (<= @array_0 0) (> main@%_64_0 0))
           (> @array_0 0)
           (= main@%_65_0 (select main@%_56_0 main@%_64_0))
           (= main@%_66_0 (< main@%_63_0 main@%_65_0))
           (= main@%i.0.rh.0.2.i.1_0 (ite main@%_66_0 4 main@%i.0.rh.0.2.i_0))
           a!28
           (or (<= @array_0 0) (> main@%_67_0 0))
           (> @array_0 0)
           (= main@%_68_0 (select main@%_56_0 main@%_67_0))
           a!29
           (or (<= @array_0 0) (> main@%_69_0 0))
           (> @array_0 0)
           (= main@%_70_0 (store main@%_56_0 main@%_69_0 main@%_68_0))
           (> @array_0 0)
           (= main@%_71_0 (store main@%_70_0 main@%_67_0 main@%_60_0))
           a!30
           (or (<= @array_0 0) (> main@%_72_0 0))
           (> @array_0 0)
           (= main@%_73_0 (select main@%_71_0 main@%_72_0))
           a!31
           (or (<= @array_0 0) (> main@%_74_0 0))
           (> @array_0 0)
           (= main@%_75_0 (select main@%_71_0 main@%_74_0))
           (= main@%_76_0 (< main@%_73_0 main@%_75_0))
           (= main@%i.0.rh.0.3.i_0 (ite main@%_76_0 4 3))
           a!32
           (or (<= @array_0 0) (> main@%_77_0 0))
           (> @array_0 0)
           (= main@%_78_0 (select main@%_71_0 main@%_77_0))
           a!33
           (or (<= @array_0 0) (> main@%_79_0 0))
           (> @array_0 0)
           (= main@%_80_0 (store main@%_71_0 main@%_79_0 main@%_78_0))
           (> @array_0 0)
           (= main@%_81_0 (store main@%_80_0 main@%_77_0 main@%_75_0))
           true
           (=> main@precall_0 (and main@precall_0 main@entry_0))
           (=> (and main@precall_0 main@entry_0) (not main@%_82_0))
           (=> (and main@precall_0 main@entry_0) (= main@%.lcssa_0 false))
           (=> (and main@precall_0 main@entry_0)
               (= main@%.lcssa_1 main@%.lcssa_0))
           (=> main@precall_0 main@%.lcssa_1)
           (=> main@precall.split_0 (and main@precall.split_0 main@precall_0))
           main@precall.split_0)
      main@precall.split)))
(rule (let ((a!1 (and (main@postcall main@%_83_0
                               main@%i.1.i2_0
                               main@%array.i_0
                               main@%_11_0)
                true
                (not main@%_83_0)
                (= main@%_84_0 (+ main@%i.1.i2_0 1))
                (= main@%_85_0 (< main@%_84_0 5))
                main@%_85_0
                (= main@%_86_0 (+ main@%array.i_0 (* 0 20) (* main@%_84_0 4)))
                (or (<= main@%array.i_0 0) (> main@%_86_0 0))
                (> main@%array.i_0 0)
                (= main@%_87_0 (select main@%_11_0 main@%_86_0))
                (= main@%_88_0 (= main@%_87_0 main@%_84_0))
                (= main@%_90_0 (= main@%_88_0 false))
                (=> main@postcall_1 (and main@postcall_1 main@postcall_0))
                main@postcall_1
                (=> (and main@postcall_1 main@postcall_0) main@%_89_0)
                (=> (and main@postcall_1 main@postcall_0)
                    (= main@%_83_1 main@%_90_0))
                (=> (and main@postcall_1 main@postcall_0)
                    (= main@%i.1.i2_1 main@%_84_0))
                (=> (and main@postcall_1 main@postcall_0)
                    (= main@%_83_2 main@%_83_1))
                (=> (and main@postcall_1 main@postcall_0)
                    (= main@%i.1.i2_2 main@%i.1.i2_1)))))
  (=> a!1
      (main@postcall main@%_83_2 main@%i.1.i2_2 main@%array.i_0 main@%_11_0))))
(rule (let ((a!1 (and (main@postcall main@%_83_0
                               main@%i.1.i2_0
                               main@%array.i_0
                               main@%_11_0)
                true
                (not main@%_83_0)
                (= main@%_84_0 (+ main@%i.1.i2_0 1))
                (= main@%_85_0 (< main@%_84_0 5))
                main@%_85_0
                (= main@%_86_0 (+ main@%array.i_0 (* 0 20) (* main@%_84_0 4)))
                (or (<= main@%array.i_0 0) (> main@%_86_0 0))
                (> main@%array.i_0 0)
                (= main@%_87_0 (select main@%_11_0 main@%_86_0))
                (= main@%_88_0 (= main@%_87_0 main@%_84_0))
                (= main@%_90_0 (= main@%_88_0 false))
                (=> main@precall.loopexit_0
                    (and main@precall.loopexit_0 main@postcall_0))
                (=> (and main@precall.loopexit_0 main@postcall_0)
                    (not main@%_89_0))
                (=> (and main@precall.loopexit_0 main@postcall_0)
                    (= main@%.lcssa9_0 main@%_90_0))
                (=> (and main@precall.loopexit_0 main@postcall_0)
                    (= main@%.lcssa9_1 main@%.lcssa9_0))
                (=> main@precall_0 (and main@precall_0 main@precall.loopexit_0))
                (=> (and main@precall_0 main@precall.loopexit_0)
                    (= main@%.lcssa_0 main@%.lcssa9_1))
                (=> (and main@precall_0 main@precall.loopexit_0)
                    (= main@%.lcssa_1 main@%.lcssa_0))
                (=> main@precall_0 main@%.lcssa_1)
                (=> main@precall.split_0
                    (and main@precall.split_0 main@precall_0))
                main@precall.split_0)))
  (=> a!1 main@precall.split)))
(query main@precall.split)

